200,161
713,613
808,279
751,309
1071,406
644,169
523,188
646,454
326,350
664,430
814,474
778,336
737,51
966,498
1194,572
753,354
1101,406
681,286
899,564
668,432
464,833
799,388
533,862
552,805
681,526
